!pal8
!def2-tzvp
!extremescf

%autoci
    citype  cisd
end

%output
    jsonpropfile true
    jsongbwfile true
end

*xyz  0 1
Li 0 0 0
H  0 0 1.597
*
