!uks
!b3lyp/g
!svp
!tightscf

%scf
    brokensym 1,1
end

%output
    jsonpropfile true
    jsongbwfile true
end

*xyz 0 1
O 0 0 0
H 0 -0.8 0.75
H 0  0.8  0.75
*
