!bp86
!def2-svp
!cpcm(water)

%output
    jsonpropfile true
    jsongbwfile true
end

*xyz 0 1
   c       -5.70411        2.27063        0.00000
   h       -4.63411        2.27063        0.00000
   h       -6.06077        3.00816       -0.68828
   h       -6.06077        2.49793        0.98286
   h       -6.06078        1.30579       -0.29458
*
