!ccsd(t)
!extrapolate(3,ano)
!tightscf
!conv
!bohrs
!pal4

%output
    jsonpropfile true
    jsongbwfile true
end

*int 0 1
O 0 0 0  0 0 0
H 1 0 0  1.81975 0 0
H 1 2 0  1.81975 105.237 0
*
