!dlpno-ccsd(t)
!cc-pvdz
!cc-pvdz/c
!cc-pvtz/jk
!rijk
!verytightscf
!tightpno
!led

%output
    jsonpropfile true
    jsongbwfile true
end

*xyz   0   1
O(1) 0  0    0
H(1) 0 -0.8  0.75
H(2) 0  0.8  0.75
*
