!ri-mp2
!pcsseg-2
!autoaux
!nmr
!cpcm(chloroform)

%output
    jsonpropfile true
    jsongbwfile true
end

*xyz   0   1
O   0     0   0
H   0   -0.8    0.75
H   0   0.0     0.75
*

%eprnmr
     nuclei = all h {shift, ssall}
end

