!def2-svp
!d3
!b3lyp
!pal4
!freq
!Opt

%output
    jsonpropfile true
    jsongbwfile true
end

*xyz 0 1
O         -3.56626        1.77639        0.00000
H         -2.59626        1.77639        0.00000
H         -3.88959        1.36040       -0.81444
*
