!bp86
!zora
!sarc-zora-svp
!sarc/j
!autoaux
!freq
!engrad

%output
    jsonpropfile true
    jsongbwfile true
end

*xyz 0 1
Hg    0    0    0
Hg    0    0    3.63
*
