!b3lyp
!def2-tzvp
!cpcm(hexane)

%tddft
   nroots   31
end

%output
    jsonpropfile true
    jsongbwfile true
end

*xyz   0   1
O   0   0    0
H   0   -0.8 0.5
H   0   0.8  0.5
*
