8
Coordinates from ORCA-job job E  -7.332238962928
  C          -0.76624392326037      0.00000104813494      0.00000605182312
  C           0.76624391880054      0.00001337496184      0.00000067040588
  H          -1.15855431402496      1.00752371181048     -0.11142767062568
  H          -1.15854407958986     -0.60026997704168     -0.81681809321053
  H          -1.15853962668144     -0.40725921404299      0.92826765858703
  H           1.15853523814510     -0.60010285581356     -0.81694543120144
  H           1.15855010323225      1.00755513741030     -0.11124587435243
  H           1.15855268337873     -0.40746122541932      0.92816268857403
